p tw 50 57
1 2
2 13
3 4
4 5
4 6
5 6
6 7
7 8
8 9
9 10
10 11
10 12
11 12
12 14
13 24
14 15
15 16
16 17
17 18
17 19
18 19
19 20
20 21
21 22
22 23
23 25
23 27
24 35
25 26
26 31
27 28
28 29
29 30
29 31
30 31
31 32
32 33
33 34
34 36
35 46
36 37
36 38
37 38
38 39
39 40
40 41
41 42
42 43
42 44
43 44
44 45
46 47
46 48
47 48
48 49
49 50
50 3
